p tw 100 16501 2 
1 3 
1 4 
1 5 
1 6 
1 7 
1 8 
1 9 
1 10 
1 11 
1 12 
1 13 
1 14 
1 15 
1 16 
1 17 
1 18 
1 19 
1 20 
1 21 
1 22 
1 23 
1 28 
1 39 
1 46 
1 54 
1 62 
1 67 
1 72 
1 81 
1 82 
1 83 
1 84 
2 3 
2 4 
2 5 
2 6 
2 7 
2 8 
2 9 
2 10 
2 11 
2 12 
2 13 
2 15 
2 24 
2 25 
2 26 
2 27 
2 28 
2 29 
2 30 
2 31 
2 32 
2 33 
2 40 
2 57 
2 63 
2 69 
2 73 
2 78 
2 81 
2 88 
2 92 
2 93 
3 4 
3 5 
3 6 
3 7 
3 8 
3 9 
3 10 
3 11 
3 12 
3 14 
3 18 
3 24 
3 32 
3 34 
3 35 
3 36 
3 37 
3 38 
3 39 
3 40 
3 41 
3 42 
3 49 
3 56 
3 63 
3 71 
3 76 
3 84 
3 96 
3 99 
3 100 
4 5 
4 6 
4 7 
4 8 
4 9 
4 10 
4 11 
4 12 
4 15 
4 17 
4 25 
4 26 
4 34 
4 37 
4 43 
4 44 
4 45 
4 46 
4 47 
4 48 
4 49 
4 50 
4 52 
4 59 
4 66 
4 67 
4 68 
4 69 
4 70 
4 71 
5 6 
5 7 
5 8 
5 9 
5 10 
5 11 
5 12 
5 13 
5 16 
5 31 
5 35 
5 41 
5 43 
5 50 
5 51 
5 52 
5 53 
5 54 
5 55 
5 56 
5 57 
5 58 
5 67 
5 74 
5 79 
5 85 
5 91 
5 93 
5 100 
6 7 
6 8 
6 9 
6 10 
6 11 
6 12 
6 16 
6 23 
6 25 
6 30 
6 36 
6 42 
6 45 
6 51 
6 55 
6 59 
6 60 
6 61 
6 62 
6 63 
6 64 
6 65 
6 69 
6 74 
6 83 
6 89 
6 98 
6 99 
7 8 
7 9 
7 10 
7 11 
7 12 
7 18 
7 20 
7 24 
7 27 
7 38 
7 44 
7 48 
7 53 
7 56 
7 60 
7 62 
7 66 
7 68 
7 72 
7 73 
7 74 
7 75 
7 77 
7 88 
7 89 
7 90 
7 91 
8 9 
8 10 
8 11 
8 12 
8 19 
8 21 
8 27 
8 31 
8 39 
8 42 
8 44 
8 45 
8 51 
8 52 
8 61 
8 71 
8 76 
8 77 
8 78 
8 79 
8 80 
8 82 
8 87 
8 90 
8 92 
8 97 
9 10 
9 11 
9 12 
9 20 
9 22 
9 29 
9 33 
9 36 
9 37 
9 47 
9 48 
9 53 
9 55 
9 60 
9 70 
9 76 
9 80 
9 81 
9 82 
9 85 
9 86 
9 87 
9 93 
9 95 
9 99 
10 11 
10 12 
10 14 
10 17 
10 28 
10 30 
10 35 
10 49 
10 50 
10 58 
10 64 
10 65 
10 70 
10 72 
10 75 
10 77 
10 80 
10 85 
10 87 
10 88 
10 92 
10 94 
10 96 
10 98 
11 12 
11 19 
11 21 
11 26 
11 33 
11 38 
11 41 
11 46 
11 47 
11 57 
11 58 
11 61 
11 65 
11 68 
11 73 
11 83 
11 86 
11 89 
11 94 
11 95 
11 96 
11 97 
11 100 
12 22 
12 23 
12 29 
12 32 
12 34 
12 40 
12 43 
12 54 
12 59 
12 64 
12 66 
12 75 
12 78 
12 79 
12 84 
12 86 
12 90 
12 91 
12 94 
12 95 
12 97 
12 98 
13 14 
13 15 
13 16 
13 17 
13 18 
13 19 
13 20 
13 21 
13 22 
13 23 
13 24 
13 25 
13 26 
13 27 
13 28 
13 29 
13 30 
13 31 
13 32 
13 33 
13 35 
13 43 
13 51 
13 52 
13 53 
13 54 
13 55 
13 56 
13 57 
13 58 
14 15 
14 16 
14 17 
14 18 
14 19 
14 20 
14 21 
14 22 
14 23 
14 24 
14 30 
14 34 
14 35 
14 36 
14 37 
14 38 
14 39 
14 40 
14 41 
14 42 
14 49 
14 58 
14 64 
14 70 
14 72 
14 77 
14 85 
14 92 
14 94 
15 16 
15 17 
15 18 
15 19 
15 20 
15 21 
15 22 
15 23 
15 25 
15 34 
15 40 
15 43 
15 44 
15 45 
15 46 
15 47 
15 48 
15 49 
15 50 
15 57 
15 63 
15 69 
15 73 
15 78 
15 81 
15 88 
15 92 
15 93 
16 17 
16 18 
16 19 
16 20 
16 21 
16 22 
16 23 
16 25 
16 31 
16 36 
16 41 
16 50 
16 51 
16 59 
16 60 
16 61 
16 62 
16 63 
16 64 
16 65 
16 67 
16 74 
16 79 
16 85 
16 91 
16 93 
16 100 
17 18 
17 19 
17 20 
17 21 
17 22 
17 23 
17 26 
17 28 
17 35 
17 37 
17 50 
17 52 
17 59 
17 65 
17 66 
17 67 
17 68 
17 69 
17 70 
17 71 
17 75 
17 80 
17 87 
17 88 
17 96 
17 98 
18 19 
18 20 
18 21 
18 22 
18 23 
18 27 
18 32 
18 38 
18 44 
18 49 
18 53 
18 56 
18 60 
18 63 
18 66 
18 71 
18 72 
18 73 
18 74 
18 75 
18 76 
18 84 
18 96 
18 99 
18 100 
19 20 
19 21 
19 22 
19 23 
19 27 
19 33 
19 38 
19 39 
19 45 
19 47 
19 52 
19 57 
19 61 
19 65 
19 68 
19 76 
19 77 
19 78 
19 79 
19 80 
19 83 
19 94 
19 97 
19 100 
20 21 
20 22 
20 23 
20 24 
20 29 
20 37 
20 47 
20 48 
20 55 
20 56 
20 60 
20 62 
20 68 
20 76 
20 77 
20 81 
20 85 
20 86 
20 87 
20 88 
20 89 
20 90 
20 91 
21 22 
21 23 
21 26 
21 31 
21 41 
21 42 
21 44 
21 46 
21 51 
21 58 
21 61 
21 71 
21 73 
21 82 
21 86 
21 87 
21 89 
21 90 
21 92 
21 95 
21 96 
21 97 
22 23 
22 32 
22 33 
22 34 
22 36 
22 48 
22 53 
22 54 
22 64 
22 66 
22 70 
22 78 
22 80 
22 82 
22 86 
22 91 
22 93 
22 95 
22 97 
22 98 
22 99 
23 29 
23 30 
23 40 
23 42 
23 43 
23 45 
23 55 
23 59 
23 69 
23 74 
23 75 
23 79 
23 83 
23 84 
23 89 
23 90 
23 94 
23 95 
23 98 
23 99 
24 25 
24 26 
24 27 
24 28 
24 29 
24 30 
24 31 
24 32 
24 33 
24 34 
24 35 
24 36 
24 37 
24 38 
24 39 
24 40 
24 41 
24 42 
24 48 
24 56 
24 62 
24 68 
24 77 
24 88 
24 89 
24 90 
24 91 
25 26 
25 27 
25 28 
25 29 
25 30 
25 31 
25 32 
25 33 
25 34 
25 36 
25 43 
25 44 
25 45 
25 46 
25 47 
25 48 
25 49 
25 50 
25 51 
25 59 
25 60 
25 61 
25 62 
25 63 
25 64 
25 65 
26 27 
26 28 
26 29 
26 30 
26 31 
26 32 
26 33 
26 37 
26 41 
26 46 
26 52 
26 58 
26 59 
26 61 
26 66 
26 67 
26 68 
26 69 
26 70 
26 71 
26 73 
26 86 
26 89 
26 95 
26 96 
27 28 
27 29 
27 30 
27 31 
27 32 
27 33 
27 38 
27 39 
27 44 
27 45 
27 52 
27 53 
27 60 
27 61 
27 66 
27 72 
27 73 
27 74 
27 75 
27 76 
27 77 
27 78 
27 79 
27 80 
28 29 
28 30 
28 31 
28 32 
28 33 
28 35 
28 39 
28 46 
28 50 
28 54 
28 62 
28 65 
28 67 
28 72 
28 75 
28 80 
28 81 
28 82 
28 83 
28 84 
28 87 
28 88 
28 96 
28 98 
29 30 
29 31 
29 32 
29 33 
29 37 
29 40 
29 43 
29 47 
29 55 
29 59 
29 60 
29 75 
29 76 
29 79 
29 81 
29 84 
29 85 
29 86 
29 87 
29 90 
29 94 
29 95 
30 31 
30 32 
30 33 
30 42 
30 45 
30 49 
30 55 
30 58 
30 64 
30 69 
30 70 
30 72 
30 74 
30 77 
30 83 
30 85 
30 89 
30 92 
30 94 
30 98 
30 99 
31 32 
31 33 
31 41 
31 42 
31 44 
31 50 
31 51 
31 67 
31 71 
31 74 
31 79 
31 82 
31 85 
31 87 
31 90 
31 91 
31 92 
31 93 
31 97 
31 100 
32 33 
32 34 
32 49 
32 54 
32 56 
32 63 
32 64 
32 66 
32 71 
32 76 
32 78 
32 84 
32 86 
32 91 
32 96 
32 97 
32 98 
32 99 
32 100 
33 36 
33 38 
33 47 
33 48 
33 53 
33 57 
33 65 
33 68 
33 70 
33 80 
33 82 
33 83 
33 93 
33 94 
33 95 
33 97 
33 99 
33 100 
34 35 
34 36 
34 37 
34 38 
34 39 
34 40 
34 41 
34 42 
34 43 
34 44 
34 45 
34 46 
34 47 
34 48 
34 49 
34 50 
34 54 
34 64 
34 66 
34 78 
34 86 
34 91 
34 97 
34 98 
35 36 
35 37 
35 38 
35 39 
35 40 
35 41 
35 42 
35 43 
35 50 
35 51 
35 52 
35 53 
35 54 
35 55 
35 56 
35 57 
35 58 
35 65 
35 75 
35 80 
35 87 
35 88 
35 96 
35 98 
36 37 
36 38 
36 39 
36 40 
36 41 
36 42 
36 48 
36 51 
36 53 
36 59 
36 60 
36 61 
36 62 
36 63 
36 64 
36 65 
36 70 
36 80 
36 82 
36 93 
36 95 
36 99 
37 38 
37 39 
37 40 
37 41 
37 42 
37 47 
37 52 
37 55 
37 59 
37 60 
37 66 
37 67 
37 68 
37 69 
37 70 
37 71 
37 76 
37 81 
37 85 
37 86 
37 87 
38 39 
38 40 
38 41 
38 42 
38 44 
38 47 
38 53 
38 57 
38 60 
38 65 
38 66 
38 68 
38 72 
38 73 
38 74 
38 75 
38 83 
38 94 
38 97 
38 100 
39 40 
39 41 
39 42 
39 45 
39 46 
39 52 
39 54 
39 61 
39 62 
39 67 
39 72 
39 76 
39 77 
39 78 
39 79 
39 80 
39 81 
39 82 
39 83 
39 84 
40 41 
40 42 
40 43 
40 57 
40 59 
40 63 
40 69 
40 73 
40 75 
40 78 
40 79 
40 81 
40 84 
40 88 
40 90 
40 92 
40 93 
40 94 
40 95 
41 42 
41 46 
41 50 
41 58 
41 61 
41 67 
41 73 
41 74 
41 79 
41 85 
41 86 
41 89 
41 91 
41 93 
41 95 
41 96 
41 100 
42 44 
42 45 
42 51 
42 55 
42 69 
42 71 
42 74 
42 82 
42 83 
42 87 
42 89 
42 90 
42 92 
42 97 
42 98 
42 99 
43 44 
43 45 
43 46 
43 47 
43 48 
43 49 
43 50 
43 51 
43 52 
43 53 
43 54 
43 55 
43 56 
43 57 
43 58 
43 59 
43 75 
43 79 
43 84 
43 90 
43 94 
43 95 
44 45 
44 46 
44 47 
44 48 
44 49 
44 50 
44 51 
44 53 
44 60 
44 66 
44 71 
44 72 
44 73 
44 74 
44 75 
44 82 
44 87 
44 90 
44 92 
44 97 
45 46 
45 47 
45 48 
45 49 
45 50 
45 52 
45 55 
45 61 
45 69 
45 74 
45 76 
45 77 
45 78 
45 79 
45 80 
45 83 
45 89 
45 98 
45 99 
46 47 
46 48 
46 49 
46 50 
46 54 
46 58 
46 61 
46 62 
46 67 
46 72 
46 73 
46 81 
46 82 
46 83 
46 84 
46 86 
46 89 
46 95 
46 96 
47 48 
47 49 
47 50 
47 55 
47 57 
47 60 
47 65 
47 68 
47 76 
47 81 
47 83 
47 85 
47 86 
47 87 
47 94 
47 97 
47 100 
48 49 
48 50 
48 53 
48 56 
48 62 
48 68 
48 70 
48 77 
48 80 
48 82 
48 88 
48 89 
48 90 
48 91 
48 93 
48 95 
48 99 
49 50 
49 56 
49 58 
49 63 
49 64 
49 70 
49 71 
49 72 
49 76 
49 77 
49 84 
49 85 
49 92 
49 94 
49 96 
49 99 
49 100 
50 65 
50 67 
50 74 
50 75 
50 79 
50 80 
50 85 
50 87 
50 88 
50 91 
50 93 
50 96 
50 98 
50 100 
51 52 
51 53 
51 54 
51 55 
51 56 
51 57 
51 58 
51 59 
51 60 
51 61 
51 62 
51 63 
51 64 
51 65 
51 71 
51 82 
51 87 
51 90 
51 92 
51 97 
52 53 
52 54 
52 55 
52 56 
52 57 
52 58 
52 59 
52 61 
52 66 
52 67 
52 68 
52 69 
52 70 
52 71 
52 76 
52 77 
52 78 
52 79 
52 80 
53 54 
53 55 
53 56 
53 57 
53 58 
53 60 
53 66 
53 70 
53 72 
53 73 
53 74 
53 75 
53 80 
53 82 
53 93 
53 95 
53 99 
54 55 
54 56 
54 57 
54 58 
54 62 
54 64 
54 66 
54 67 
54 72 
54 78 
54 81 
54 82 
54 83 
54 84 
54 86 
54 91 
54 97 
54 98 
55 56 
55 57 
55 58 
55 60 
55 69 
55 74 
55 76 
55 81 
55 83 
55 85 
55 86 
55 87 
55 89 
55 98 
55 99 
56 57 
56 58 
56 62 
56 63 
56 68 
56 71 
56 76 
56 77 
56 84 
56 88 
56 89 
56 90 
56 91 
56 96 
56 99 
56 100 
57 58 
57 63 
57 65 
57 68 
57 69 
57 73 
57 78 
57 81 
57 83 
57 88 
57 92 
57 93 
57 94 
57 97 
57 100 
58 61 
58 64 
58 70 
58 72 
58 73 
58 77 
58 85 
58 86 
58 89 
58 92 
58 94 
58 95 
58 96 
59 60 
59 61 
59 62 
59 63 
59 64 
59 65 
59 66 
59 67 
59 68 
59 69 
59 70 
59 71 
59 75 
59 79 
59 84 
59 90 
59 94 
59 95 
60 61 
60 62 
60 63 
60 64 
60 65 
60 66 
60 72 
60 73 
60 74 
60 75 
60 76 
60 81 
60 85 
60 86 
60 87 
61 62 
61 63 
61 64 
61 65 
61 73 
61 76 
61 77 
61 78 
61 79 
61 80 
61 86 
61 89 
61 95 
61 96 
62 63 
62 64 
62 65 
62 67 
62 68 
62 72 
62 77 
62 81 
62 82 
62 83 
62 84 
62 88 
62 89 
62 90 
62 91 
63 64 
63 65 
63 69 
63 71 
63 73 
63 76 
63 78 
63 81 
63 84 
63 88 
63 92 
63 93 
63 96 
63 99 
63 100 
64 65 
64 66 
64 70 
64 72 
64 77 
64 78 
64 85 
64 86 
64 91 
64 92 
64 94 
64 97 
64 98 
65 68 
65 75 
65 80 
65 83 
65 87 
65 88 
65 94 
65 96 
65 97 
65 98 
65 100 
66 67 
66 68 
66 69 
66 70 
66 71 
66 72 
66 73 
66 74 
66 75 
66 78 
66 86 
66 91 
66 97 
66 98 
67 68 
67 69 
67 70 
67 71 
67 72 
67 74 
67 79 
67 81 
67 82 
67 83 
67 84 
67 85 
67 91 
67 93 
67 100 
68 69 
68 70 
68 71 
68 77 
68 83 
68 88 
68 89 
68 90 
68 91 
68 94 
68 97 
68 100 
69 70 
69 71 
69 73 
69 74 
69 78 
69 81 
69 83 
69 88 
69 89 
69 92 
69 93 
69 98 
69 99 
70 71 
70 72 
70 77 
70 80 
70 82 
70 85 
70 92 
70 93 
70 94 
70 95 
70 99 
71 76 
71 82 
71 84 
71 87 
71 90 
71 92 
71 96 
71 97 
71 99 
71 100 
72 73 
72 74 
72 75 
72 77 
72 81 
72 82 
72 83 
72 84 
72 85 
72 92 
72 94 
73 74 
73 75 
73 78 
73 81 
73 86 
73 88 
73 89 
73 92 
73 93 
73 95 
73 96 
74 75 
74 79 
74 83 
74 85 
74 89 
74 91 
74 93 
74 98 
74 99 
74 100 
75 79 
75 80 
75 84 
75 87 
75 88 
75 90 
75 94 
75 95 
75 96 
75 98 
76 77 
76 78 
76 79 
76 80 
76 81 
76 84 
76 85 
76 86 
76 87 
76 96 
76 99 
76 100 
77 78 
77 79 
77 80 
77 85 
77 88 
77 89 
77 90 
77 91 
77 92 
77 94 
78 79 
78 80 
78 81 
78 86 
78 88 
78 91 
78 92 
78 93 
78 97 
78 98 
79 80 
79 84 
79 85 
79 90 
79 91 
79 93 
79 94 
79 95 
79 100 
80 82 
80 87 
80 88 
80 93 
80 95 
80 96 
80 98 
80 99 
81 82 
81 83 
81 84 
81 85 
81 86 
81 87 
81 88 
81 92 
81 93 
82 83 
82 84 
82 87 
82 90 
82 92 
82 93 
82 95 
82 97 
82 99 
83 84 
83 89 
83 94 
83 97 
83 98 
83 99 
83 100 
84 90 
84 94 
84 95 
84 96 
84 99 
84 100 
85 86 
85 87 
85 91 
85 92 
85 93 
85 94 
85 100 
86 87 
86 89 
86 91 
86 95 
86 96 
86 97 
86 98 
87 88 
87 90 
87 92 
87 96 
87 97 
87 98 
88 89 
88 90 
88 91 
88 92 
88 93 
88 96 
88 98 
89 90 
89 91 
89 95 
89 96 
89 98 
89 99 
90 91 
90 92 
90 94 
90 95 
90 97 
91 93 
91 97 
91 98 
91 100 
92 93 
92 94 
92 97 
93 95 
93 99 
93 100 
94 95 
94 97 
94 100 
95 96 
95 99 
96 98 
96 99 
96 100 
97 98 
97 100 
98 99 
99 100 
